# Solution for model problem
# Objective value = 1.291e-05
CLIENT_PE0_0 0
CLIENT_PE2_0 0
CLIENT_PE3_0 0
CLIENT_PE4_0 0
CLIENT_PE6_0 0
CLIENT_PE7_0 0
CLIENT_PE13_0 1
CLIENT_PE14_0 0
CLIENT_PE0_4 0
CLIENT_PE2_4 0
CLIENT_PE3_4 0
CLIENT_PE4_4 0
CLIENT_PE6_4 0
CLIENT_PE7_4 0
CLIENT_PE13_4 1
CLIENT_PE14_4 0
CLIENT_PE0_2 0
CLIENT_PE1_2 0
CLIENT_PE2_2 0
CLIENT_PE3_2 0
CLIENT_PE4_2 0
CLIENT_PE5_2 0
CLIENT_PE6_2 0
CLIENT_PE7_2 0
CLIENT_PE8_2 0
CLIENT_PE9_2 0
CLIENT_PE10_2 0
CLIENT_PE11_2 0
CLIENT_PE12_2 0
CLIENT_PE13_2 0
CLIENT_PE14_2 0
CLIENT_PE15_2 1
CLIENT_PE16_2 0
